SPARKNaCl/why3-cvc5/sparknacl-sign.adb_1111_10_index_check2_1.smt2
;; produced by cvc5.drv ;;
(set-logic ALL)
(set-info :smt-lib-version 2.6)
;;; generated by SMT-LIB2 driver
;;; SMT-LIB2 driver: bit-vectors, common part
;;; SMT-LIB2: integer arithmetic
;; "length"
(define-fun length ((x Int) (y Int)) Int
  (ite (<= x y) (+ (- y x) 1) 0))

;; "pow2"
(declare-fun pow2 (Int) Int)

(declare-const two_power_size_minus_one Int)

;; "two_power_size_minus_one_val"
(assert (= two_power_size_minus_one (pow2 (- 8 1))))

;; "min"
(define-fun min ((x Int) (y Int)) Int
  (ite (<= x y) x y))

;; "max"
(define-fun max ((x Int) (y Int)) Int
  (ite (<= x y) y x))

;; "Min_r"
(assert (forall ((x Int) (y Int)) (=> (<= y x) (= (min x y) y))))

;; "Max_l"
(assert (forall ((x Int) (y Int)) (=> (<= y x) (= (max x y) x))))

;; "Min_comm"
(assert (forall ((x Int) (y Int)) (= (min x y) (min y x))))

;; "Max_comm"
(assert (forall ((x Int) (y Int)) (= (max x y) (max y x))))

;; "Min_assoc"
(assert
  (forall ((x Int) (y Int) (z Int)) (= (min (min x y) z) (min x (min y z)))))

;; "Max_assoc"
(assert
  (forall ((x Int) (y Int) (z Int)) (= (max (max x y) z) (max x (max y z)))))

(declare-sort byte 0)

;; "to_rep"
(declare-fun to_rep (byte) (_ BitVec 8))

;; "of_rep"
(declare-fun of_rep ((_ BitVec 8)) byte)

;; "inversion_axiom"
(assert
  (forall ((x byte)) (! (= (of_rep (to_rep x)) x) :pattern ((to_rep x)) )))

;; "range_axiom"
(assert true)

;; "coerce_axiom"
(assert
  (forall ((x (_ BitVec 8)))
    (! (= (to_rep (of_rep x)) x) :pattern ((to_rep (of_rep x))) )))

(declare-sort map1 0)

;; "has_bounds"
(declare-fun has_bounds (map1
  Int
  Int) Bool)

;; "get"
(declare-fun get (map1
  Int) byte)

;; "slide"
(declare-fun slide (map1
  Int
  Int) map1)

;; "slide_eq"
(assert
  (forall ((a map1) (first Int))
    (! (= (slide a first first) a) :pattern ((slide a first first)) )))

;; "slide_def"
(assert
  (forall ((a map1) (old_first Int) (new_first Int))
    (! (and
         (forall ((i Int))
           (! (= (get (slide a old_first new_first) i) (get
                                                         a
                                                         (- i (- new_first old_first)))) :pattern (
           (get
             (slide a old_first new_first)
             i)) ))
         (forall ((new_last Int))
           (! (=>
                (has_bounds a old_first (- new_last (- new_first old_first)))
                (has_bounds (slide a old_first new_first) new_first new_last)) :pattern (
           (has_bounds
             (slide a old_first new_first)
             new_first
             new_last)) ))) :pattern ((slide a old_first new_first)) )))

(declare-datatypes ((us_split_fields 0))
  (((us_split_fieldsqtmk (rec__ada___sparknacl__sign__signing_pk__f map1)))))

(declare-datatypes ((us_rep 0))
  (((us_repqtmk (us_split_fields1 us_split_fields)))))

;; "dynamic_invariant"
(define-fun dynamic_invariant ((temp___expr_531 us_rep) (temp___is_init_527 Bool) (temp___skip_constant_528 Bool) (temp___do_toplevel_529 Bool) (temp___do_typ_inv_530 Bool)) Bool
  (has_bounds
    (rec__ada___sparknacl__sign__signing_pk__f
      (us_split_fields1 temp___expr_531))
    0
    31))

;; "serialize"
(declare-fun serialize (us_rep) map1)

;; "serialize__function_guard"
(declare-fun serialize__function_guard (map1
  us_rep) Bool)

(declare-sort tinteger_32B 0)

;; "tinteger_32B'int"
(declare-fun tinteger_32Bqtint (tinteger_32B) Int)

;; "tinteger_32B'axiom"
(assert
  (forall ((i tinteger_32B))
    (and
      (<= (- 2147483648) (tinteger_32Bqtint i))
      (<= (tinteger_32Bqtint i) 2147483647))))

;; "in_range"
(define-fun in_range ((x Int)) Bool
  (and (<= (- 2147483648) x) (<= x 2147483647)))

;; "to_rep"
(define-fun to_rep1 ((x tinteger_32B)) Int
  (tinteger_32Bqtint x))

;; "of_rep"
(declare-fun of_rep1 (Int) tinteger_32B)

;; "inversion_axiom"
(assert
  (forall ((x tinteger_32B))
    (! (= (of_rep1 (to_rep1 x)) x) :pattern ((to_rep1 x)) )))

;; "range_axiom"
(assert
  (forall ((x tinteger_32B))
    (! (in_range (to_rep1 x)) :pattern ((to_rep1 x)) )))

;; "coerce_axiom"
(assert
  (forall ((x Int))
    (! (=> (in_range x) (= (to_rep1 (of_rep1 x)) x)) :pattern ((to_rep1
                                                                 (of_rep1 x))) )))

;; "in_range"
(define-fun in_range1 ((x Int)) Bool
  (and (<= 0 x) (<= x 2147483647)))

(declare-datatypes ((t 0))
  (((tqtmk (rec__first tinteger_32B)(rec__last tinteger_32B)))))

;; "mk"
(declare-fun mk (Int
  Int) t)

;; "mk_def"
(assert
  (forall ((f Int) (l Int))
    (! (=>
         (in_range f)
         (=>
           (in_range l)
           (and
             (= (to_rep1 (rec__first (mk f l))) f)
             (= (to_rep1 (rec__last (mk f l))) l)))) :pattern ((mk f l)) )))

;; "dynamic_property"
(define-fun dynamic_property ((range_first Int) (range_last Int) (low Int) (high Int)) Bool
  (and
    (in_range low)
    (and
      (in_range high)
      (=> (<= low high) (and (in_range1 low) (in_range1 high))))))

(declare-datatypes ((us_t 0))
  (((us_tqtmk (elts map1)(rt t)))))

;; "to_array"
(define-fun to_array ((a us_t)) map1
  (elts a))

;; "of_array"
(define-fun of_array ((a map1) (f Int) (l Int)) us_t
  (us_tqtmk a (mk f l)))

;; "first"
(define-fun first ((a us_t)) Int
  (to_rep1 (rec__first (rt a))))

;; "last"
(define-fun last ((a us_t)) Int
  (to_rep1 (rec__last (rt a))))

;; "length"
(define-fun length1 ((a us_t)) Int
  (ite (<= (first a) (last a)) (+ (- (last a) (first a)) 1) 0))

;; "well_formed"
(define-fun well_formed ((a us_t)) Bool
  (has_bounds
    (elts a)
    (to_rep1 (rec__first (rt a)))
    (to_rep1 (rec__last (rt a)))))

(declare-const m__first tinteger_32B)

(declare-const m__last tinteger_32B)

(declare-const sm us_t)

(declare-const pk us_rep)

(declare-const two_power_size_minus_one1 Int)

;; "two_power_size_minus_one_val"
(assert (= two_power_size_minus_one1 (pow2 (- 16 1))))

(declare-sort gf16_normal_limb 0)

;; "to_rep"
(declare-fun to_rep2 (gf16_normal_limb) (_ BitVec 16))

;; "of_rep"
(declare-fun of_rep2 ((_ BitVec 16)) gf16_normal_limb)

;; "inversion_axiom"
(assert
  (forall ((x gf16_normal_limb))
    (! (= (of_rep2 (to_rep2 x)) x) :pattern ((to_rep2 x)) )))

;; "range_axiom"
(assert true)

;; "coerce_axiom"
(assert
  (forall ((x (_ BitVec 16)))
    (! (= (to_rep2 (of_rep2 x)) x) :pattern ((to_rep2 (of_rep2 x))) )))

(declare-sort map2 0)

;; "has_bounds"
(declare-fun has_bounds1 (map2
  Int
  Int) Bool)

(declare-sort map3 0)

;; "has_bounds"
(declare-fun has_bounds2 (map3
  Int
  Int) Bool)

;; "get"
(declare-fun get1 (map3
  Int) map2)

;; "dynamic_invariant"
(define-fun dynamic_invariant1 ((temp___expr_683 map3) (temp___is_init_679 Bool) (temp___skip_constant_680 Bool) (temp___do_toplevel_681 Bool) (temp___do_typ_inv_682 Bool)) Bool
  (and
    (has_bounds2 temp___expr_683 0 3)
    (forall ((temp___684 Int))
      (=>
        (and (<= 0 temp___684) (<= temp___684 3))
        (has_bounds1 (get1 temp___expr_683 temp___684) 0 15)))))

;; "dynamic_invariant"
(define-fun dynamic_invariant2 ((temp___expr_486 us_t) (temp___is_init_482 Bool) (temp___skip_constant_483 Bool) (temp___do_toplevel_484 Bool) (temp___do_typ_inv_485 Bool)) Bool
  (and
    (=>
      (not (= temp___skip_constant_483 true))
      (dynamic_property
        0
        2147483647
        (first temp___expr_486)
        (last temp___expr_486)))
    (well_formed temp___expr_486)))

;; "in_range"
(define-fun in_range2 ((x Int)) Bool
  (and (<= (- 2147483648) x) (<= x 2147483647)))

;; Goal "def'vc"
;; File "sparknacl-sign.ads", line 54, characters 0-0
(assert
  (not
  (forall ((m map1) (mlen Int) (t1 map1) (p map3) (q map3) (ln Int))
    (=>
      (and
        (dynamic_property 0 2147483647 (to_rep1 m__first) (to_rep1 m__last))
        (well_formed (of_array m (to_rep1 m__first) (to_rep1 m__last))))
      (=>
        (in_range2 mlen)
        (=>
          (dynamic_invariant2 sm true false true true)
          (=>
            (dynamic_invariant pk true false true true)
            (=>
              (and
                (and
                  (and
                    (and (= (to_rep1 m__first) 0) (= (first sm) 0))
                    (= (length1 sm) (length
                                      (to_rep1 m__first)
                                      (to_rep1 m__last))))
                  (= (last sm) (to_rep1 m__last)))
                (<= 64 (length1 sm)))
              (=>
                (has_bounds t1 0 31)
                (=>
                  (dynamic_invariant1 p false false true true)
                  (=>
                    (dynamic_invariant1 q false false true true)
                    (=>
                      (in_range2 ln)
                      (forall ((spark__branch Bool))
                        (=>
                          (= spark__branch (ite (< (length1 sm) 64)
                                             true
                                             false))
                          (=>
                            (not (= spark__branch true))
                            (let ((o pk))
                              (let ((o1 (serialize o)))
                                (=>
                                  (and
                                    (serialize__function_guard o1 o)
                                    (has_bounds o1 0 31))
                                  (forall ((status Bool) (q1 map3))
                                    (=>
                                      (dynamic_invariant1
                                        q1
                                        true
                                        true
                                        true
                                        true)
                                      (forall ((spark__branch1 Bool))
                                        (=>
                                          (= spark__branch1 (ite (= status true)
                                                              false
                                                              true))
                                          (=>
                                            (not (= spark__branch1 true))
                                            (forall ((o2 Int))
                                              (=>
                                                (= (to_rep1 m__last) o2)
                                                (forall ((o3 Int))
                                                  (=>
                                                    (= (to_rep1 m__first) o3)
                                                    (=>
                                                      (ite (<= (first sm) 
                                                        (last
                                                          sm))
                                                        (and
                                                          (<= o3 o2)
                                                          (= (- (last sm) 
                                                          (first
                                                            sm)) (- o2 o3)))
                                                        (< o2 o3))
                                                      (let ((temp___1780 
                                                        sm))
                                                        (forall ((o4 Int))
                                                          (=>
                                                            (= (to_rep1
                                                                 m__first) o4)
                                                            (forall ((o5 Int))
                                                              (=>
                                                                (= (to_rep1
                                                                    m__last) o5)
                                                                (forall 
                                                                  ((o6 Int))
                                                                  (=>
                                                                    (= 
                                                                    (to_rep1
                                                                    m__first) o6)
                                                                    (forall 
                                                                    ((m1 map1))
                                                                    (=>
                                                                    (= m1 
                                                                    (slide
                                                                    (to_array
                                                                    temp___1780)
                                                                    (first
                                                                    temp___1780)
                                                                    o4))
                                                                    (forall 
                                                                    ((o7 Int))
                                                                    (=>
                                                                    (= 
                                                                    (to_rep1
                                                                    m__last) o7)
                                                                    (forall 
                                                                    ((o8 Int))
                                                                    (=>
                                                                    (= 
                                                                    (to_rep1
                                                                    m__first) o8)
                                                                    (let ((o9 
                                                                    pk))
                                                                    (let ((temp___1786 
                                                                    (serialize
                                                                    o9)))
                                                                    (=>
                                                                    (and
                                                                    (serialize__function_guard
                                                                    temp___1786
                                                                    o9)
                                                                    (has_bounds
                                                                    temp___1786
                                                                    0
                                                                    31))
                                                                    (=>
                                                                    (<= 32 63)
                                                                    (<= 32 o7))))))))))))))))))))))))))))))))))))))))))))))

(check-sat)
